100 8
582 239
215 681
882 247
142 366
665 876
472 301
189 61
562 765
593 862
586 810
546 826
937 378
517 558
602 265
546 499
441 163
227 624
94 755
421 159
423 334
123 411
424 925
912 267
191 395
468 302
240 667
146 180
128 884
189 602
347 602
889 269
344 592
379 565
500 708
640 411
914 413
97 841
31 757
199 711
44 819
180 770
223 726
694 945
627 456
264 579
919 203
834 528
109 323
479 626
638 692
100 761
79 846
554 910
172 339
140 347
209 762
463 532
169 694
564 214
537 481
735 963
511 746
483 551
820 552
234 106
360 716
803 185
211 827
224 770
537 853
646 840
254 723
297 715
76 857
485 379
171 133
320 664
565 839
193 84
227 607
559 813
404 328
224 671
291 744
151 378
572 873
488 370
674 923
87 124
218 749
440 714
518 822
235 523
564 822
906 433
634 803
674 854
453 939
43 712
714 316
